src/zimpl/lpfiles/knapsack50nr1.lp
\ This file was automatically generated by Zimpl
\ param file := "instances/knapsack50nr1.txt";
\ param n := read file as "1n" use 1 comment "#";
\ do print n;
\ param m := read file as "1n" skip 1 use 1 comment "#";
\ do print m;
\ param k := read file as "1n" skip 2 use 1 comment "#";
\ do print k;
\ set Items := {1 to n};
\ set Knapsacks := {1 to m};
\ set Capacities := {1 to k};
\ param p[Items] := read file as "1n" skip 3 use n comment "#";
\ param w[Items*Capacities] := read file as "n+" skip 3+n use n comment "#";
\ param c[Knapsacks*Capacities] := read file as "n+" skip 3+2*n use m comment "#";
\ var x[Knapsacks * Items] binary;
\ maximize profit: sum <i> in Knapsacks: sum <j> in Items: p[j]* x[i,j];
\ subto cap: forall <i> in Knapsacks: forall <h> in Capacities: sum <j> in Items: w[j,h]*x[i,j] <= c[i,h];
\ subto one: forall <j> in Items: sum <i> in Knapsacks: x[i,j] <= 1;
\Problem name: zimplfiles/knapsack50nr1.zpl
Maximize
 profit:  +36 x#1#1 +68 x#1#2 +37 x#1#3 +43 x#1#4 +69 x#1#5 +25 x#1#6
  +74 x#1#7 +60 x#1#8 +50 x#1#9 +56 x#1#10 +27 x#1#11 +17 x#1#12
  +84 x#1#13 +16 x#1#14 +32 x#1#15 +89 x#1#16 +8 x#1#17 +95 x#1#18
  +28 x#1#19 +46 x#1#20 +35 x#1#21 +58 x#1#22 +39 x#1#23 +21 x#1#24
  +92 x#1#25 +10 x#1#26 +81 x#1#27 +46 x#1#28 +14 x#1#29 +85 x#1#30
  +85 x#1#31 +78 x#1#32 +51 x#1#33 +64 x#1#34 +48 x#1#35 +48 x#1#36
  +59 x#1#37 +63 x#1#38 +100 x#1#39 +61 x#1#40 +31 x#1#41 +9 x#1#42
  +53 x#1#43 +73 x#1#44 +87 x#1#45 +46 x#1#46 +4 x#1#47 +84 x#1#48
  +69 x#1#49 +31 x#1#50 +36 x#2#1 +68 x#2#2 +37 x#2#3 +43 x#2#4
  +69 x#2#5 +25 x#2#6 +74 x#2#7 +60 x#2#8 +50 x#2#9 +56 x#2#10
  +27 x#2#11 +17 x#2#12 +84 x#2#13 +16 x#2#14 +32 x#2#15 +89 x#2#16
  +8 x#2#17 +95 x#2#18 +28 x#2#19 +46 x#2#20 +35 x#2#21 +58 x#2#22
  +39 x#2#23 +21 x#2#24 +92 x#2#25 +10 x#2#26 +81 x#2#27 +46 x#2#28
  +14 x#2#29 +85 x#2#30 +85 x#2#31 +78 x#2#32 +51 x#2#33 +64 x#2#34
  +48 x#2#35 +48 x#2#36 +59 x#2#37 +63 x#2#38 +100 x#2#39 +61 x#2#40
  +31 x#2#41 +9 x#2#42 +53 x#2#43 +73 x#2#44 +87 x#2#45 +46 x#2#46
  +4 x#2#47 +84 x#2#48 +69 x#2#49 +31 x#2#50 +36 x#3#1 +68 x#3#2
  +37 x#3#3 +43 x#3#4 +69 x#3#5 +25 x#3#6 +74 x#3#7 +60 x#3#8
  +50 x#3#9 +56 x#3#10 +27 x#3#11 +17 x#3#12 +84 x#3#13 +16 x#3#14
  +32 x#3#15 +89 x#3#16 +8 x#3#17 +95 x#3#18 +28 x#3#19 +46 x#3#20
  +35 x#3#21 +58 x#3#22 +39 x#3#23 +21 x#3#24 +92 x#3#25 +10 x#3#26
  +81 x#3#27 +46 x#3#28 +14 x#3#29 +85 x#3#30 +85 x#3#31 +78 x#3#32
  +51 x#3#33 +64 x#3#34 +48 x#3#35 +48 x#3#36 +59 x#3#37 +63 x#3#38
  +100 x#3#39 +61 x#3#40 +31 x#3#41 +9 x#3#42 +53 x#3#43 +73 x#3#44
  +87 x#3#45 +46 x#3#46 +4 x#3#47 +84 x#3#48 +69 x#3#49 +31 x#3#50
  +36 x#4#1 +68 x#4#2 +37 x#4#3 +43 x#4#4 +69 x#4#5 +25 x#4#6
  +74 x#4#7 +60 x#4#8 +50 x#4#9 +56 x#4#10 +27 x#4#11 +17 x#4#12
  +84 x#4#13 +16 x#4#14 +32 x#4#15 +89 x#4#16 +8 x#4#17 +95 x#4#18
  +28 x#4#19 +46 x#4#20 +35 x#4#21 +58 x#4#22 +39 x#4#23 +21 x#4#24
  +92 x#4#25 +10 x#4#26 +81 x#4#27 +46 x#4#28 +14 x#4#29 +85 x#4#30
  +85 x#4#31 +78 x#4#32 +51 x#4#33 +64 x#4#34 +48 x#4#35 +48 x#4#36
  +59 x#4#37 +63 x#4#38 +100 x#4#39 +61 x#4#40 +31 x#4#41 +9 x#4#42
  +53 x#4#43 +73 x#4#44 +87 x#4#45 +46 x#4#46 +4 x#4#47 +84 x#4#48
  +69 x#4#49 +31 x#4#50 +36 x#5#1 +68 x#5#2 +37 x#5#3 +43 x#5#4
  +69 x#5#5 +25 x#5#6 +74 x#5#7 +60 x#5#8 +50 x#5#9 +56 x#5#10
  +27 x#5#11 +17 x#5#12 +84 x#5#13 +16 x#5#14 +32 x#5#15 +89 x#5#16
  +8 x#5#17 +95 x#5#18 +28 x#5#19 +46 x#5#20 +35 x#5#21 +58 x#5#22
  +39 x#5#23 +21 x#5#24 +92 x#5#25 +10 x#5#26 +81 x#5#27 +46 x#5#28
  +14 x#5#29 +85 x#5#30 +85 x#5#31 +78 x#5#32 +51 x#5#33 +64 x#5#34
  +48 x#5#35 +48 x#5#36 +59 x#5#37 +63 x#5#38 +100 x#5#39 +61 x#5#40
  +31 x#5#41 +9 x#5#42 +53 x#5#43 +73 x#5#44 +87 x#5#45 +46 x#5#46
  +4 x#5#47 +84 x#5#48 +69 x#5#49 +31 x#5#50
Subject to
 cap_1:
  +69 x#1#50 +13 x#1#49 +35 x#1#48 +17 x#1#47 +65 x#1#46 +48 x#1#45
  +95 x#1#44 +26 x#1#43 +25 x#1#42 +71 x#1#41 +2 x#1#40 +92 x#1#39
  +98 x#1#38 +17 x#1#37 +8 x#1#36 +82 x#1#35 +5 x#1#34 +95 x#1#33
  +77 x#1#32 +33 x#1#31 +60 x#1#30 +3 x#1#29 +40 x#1#28 +10 x#1#27
  +35 x#1#26 +62 x#1#25 +91 x#1#24 +70 x#1#23 +79 x#1#22 +19 x#1#21
  +69 x#1#20 +93 x#1#19 +14 x#1#18 +53 x#1#17 +79 x#1#16 +95 x#1#15
  +60 x#1#14 +88 x#1#13 +39 x#1#12 +45 x#1#11 +43 x#1#10 +9 x#1#9
  +7 x#1#8 +24 x#1#7 +88 x#1#6 +25 x#1#5 +63 x#1#4 +24 x#1#3
  +26 x#1#2 +57 x#1#1 <= 123
 cap_2:
  +95 x#1#50 +12 x#1#49 +4 x#1#48 +66 x#1#47 +34 x#1#46 +7 x#1#45
  +15 x#1#44 +50 x#1#43 +76 x#1#42 +22 x#1#41 +66 x#1#40 +6 x#1#39
  +73 x#1#38 +5 x#1#37 +41 x#1#36 +38 x#1#35 +4 x#1#34 +68 x#1#33
  +69 x#1#32 +4 x#1#31 +59 x#1#30 +84 x#1#29 +95 x#1#28 +61 x#1#27
  +43 x#1#26 +45 x#1#25 +27 x#1#24 +42 x#1#23 +70 x#1#22 +99 x#1#21
  +90 x#1#20 +69 x#1#19 +75 x#1#18 +39 x#1#17 +42 x#1#16 +47 x#1#15
  +66 x#1#14 +24 x#1#13 +3 x#1#12 +13 x#1#11 +98 x#1#10 +100 x#1#9
  +50 x#1#8 +17 x#1#7 +20 x#1#6 +98 x#1#5 +71 x#1#4 +31 x#1#3
  +59 x#1#2 +87 x#1#1 <= 156
 cap_3:
  +94 x#1#50 +2 x#1#49 +86 x#1#48 +14 x#1#47 +99 x#1#46 +48 x#1#45
  +91 x#1#44 +51 x#1#43 +26 x#1#42 +13 x#1#41 +34 x#1#40 +39 x#1#39
  +44 x#1#38 +2 x#1#37 +43 x#1#36 +76 x#1#35 +92 x#1#34 +24 x#1#33
  +12 x#1#32 +94 x#1#31 +74 x#1#30 +70 x#1#29 +44 x#1#28 +95 x#1#27
  +33 x#1#26 +4 x#1#25 +57 x#1#24 +87 x#1#23 +49 x#1#22 +91 x#1#21
  +5 x#1#20 +33 x#1#19 + x#1#18 +74 x#1#17 +49 x#1#16 +76 x#1#15
  +69 x#1#14 +82 x#1#13 +81 x#1#12 +94 x#1#11 +44 x#1#10 +75 x#1#9
  +28 x#1#8 +88 x#1#7 +83 x#1#6 +12 x#1#5 +46 x#1#4 +39 x#1#3
  +40 x#1#2 +94 x#1#1 <= 158
 cap_4:
  +67 x#1#50 +84 x#1#49 +82 x#1#48 +19 x#1#47 +94 x#1#46 +58 x#1#45
  +74 x#1#44 +20 x#1#43 +95 x#1#42 +20 x#1#41 +84 x#1#40 +100 x#1#39
  +7 x#1#38 +31 x#1#37 +35 x#1#36 +87 x#1#35 +21 x#1#34 +80 x#1#33
  +58 x#1#32 +32 x#1#31 +88 x#1#30 +36 x#1#29 +73 x#1#28 +72 x#1#27
  +37 x#1#26 +24 x#1#25 +15 x#1#24 +34 x#1#23 +54 x#1#22 +56 x#1#21
  +7 x#1#20 +34 x#1#19 +15 x#1#18 +10 x#1#17 +84 x#1#16 +64 x#1#15
  +49 x#1#14 +81 x#1#13 +58 x#1#12 +44 x#1#11 +80 x#1#10 +48 x#1#9
  +65 x#1#8 +17 x#1#7 +59 x#1#6 +10 x#1#5 +71 x#1#4 +96 x#1#3
  +20 x#1#2 +89 x#1#1 <= 168
 cap_5:
  +23 x#1#50 +42 x#1#49 +93 x#1#48 +52 x#1#47 +52 x#1#46 +24 x#1#45
  +66 x#1#44 +88 x#1#43 +91 x#1#42 +19 x#1#41 +15 x#1#40 +88 x#1#39
  +3 x#1#38 +42 x#1#37 +45 x#1#36 +83 x#1#35 +57 x#1#34 +70 x#1#33
  +4 x#1#32 +37 x#1#31 +65 x#1#30 +39 x#1#29 +19 x#1#28 +83 x#1#27
  +82 x#1#26 +30 x#1#25 +85 x#1#24 +29 x#1#23 +29 x#1#22 +52 x#1#21
  +13 x#1#20 +26 x#1#19 +98 x#1#18 +93 x#1#17 +22 x#1#16 +37 x#1#15
  +37 x#1#14 +34 x#1#13 +11 x#1#12 +63 x#1#11 +14 x#1#10 +11 x#1#9
  +24 x#1#8 +83 x#1#7 + x#1#6 + x#1#5 +47 x#1#4 +20 x#1#3
  +86 x#1#2 +25 x#1#1 <= 173
 cap_6:
  +69 x#2#50 +13 x#2#49 +35 x#2#48 +17 x#2#47 +65 x#2#46 +48 x#2#45
  +95 x#2#44 +26 x#2#43 +25 x#2#42 +71 x#2#41 +2 x#2#40 +92 x#2#39
  +98 x#2#38 +17 x#2#37 +8 x#2#36 +82 x#2#35 +5 x#2#34 +95 x#2#33
  +77 x#2#32 +33 x#2#31 +60 x#2#30 +3 x#2#29 +40 x#2#28 +10 x#2#27
  +35 x#2#26 +62 x#2#25 +91 x#2#24 +70 x#2#23 +79 x#2#22 +19 x#2#21
  +69 x#2#20 +93 x#2#19 +14 x#2#18 +53 x#2#17 +79 x#2#16 +95 x#2#15
  +60 x#2#14 +88 x#2#13 +39 x#2#12 +45 x#2#11 +43 x#2#10 +9 x#2#9
  +7 x#2#8 +24 x#2#7 +88 x#2#6 +25 x#2#5 +63 x#2#4 +24 x#2#3
  +26 x#2#2 +57 x#2#1 <= 97
 cap_7:
  +95 x#2#50 +12 x#2#49 +4 x#2#48 +66 x#2#47 +34 x#2#46 +7 x#2#45
  +15 x#2#44 +50 x#2#43 +76 x#2#42 +22 x#2#41 +66 x#2#40 +6 x#2#39
  +73 x#2#38 +5 x#2#37 +41 x#2#36 +38 x#2#35 +4 x#2#34 +68 x#2#33
  +69 x#2#32 +4 x#2#31 +59 x#2#30 +84 x#2#29 +95 x#2#28 +61 x#2#27
  +43 x#2#26 +45 x#2#25 +27 x#2#24 +42 x#2#23 +70 x#2#22 +99 x#2#21
  +90 x#2#20 +69 x#2#19 +75 x#2#18 +39 x#2#17 +42 x#2#16 +47 x#2#15
  +66 x#2#14 +24 x#2#13 +3 x#2#12 +13 x#2#11 +98 x#2#10 +100 x#2#9
  +50 x#2#8 +17 x#2#7 +20 x#2#6 +98 x#2#5 +71 x#2#4 +31 x#2#3
  +59 x#2#2 +87 x#2#1 <= 166
 cap_8:
  +94 x#2#50 +2 x#2#49 +86 x#2#48 +14 x#2#47 +99 x#2#46 +48 x#2#45
  +91 x#2#44 +51 x#2#43 +26 x#2#42 +13 x#2#41 +34 x#2#40 +39 x#2#39
  +44 x#2#38 +2 x#2#37 +43 x#2#36 +76 x#2#35 +92 x#2#34 +24 x#2#33
  +12 x#2#32 +94 x#2#31 +74 x#2#30 +70 x#2#29 +44 x#2#28 +95 x#2#27
  +33 x#2#26 +4 x#2#25 +57 x#2#24 +87 x#2#23 +49 x#2#22 +91 x#2#21
  +5 x#2#20 +33 x#2#19 + x#2#18 +74 x#2#17 +49 x#2#16 +76 x#2#15
  +69 x#2#14 +82 x#2#13 +81 x#2#12 +94 x#2#11 +44 x#2#10 +75 x#2#9
  +28 x#2#8 +88 x#2#7 +83 x#2#6 +12 x#2#5 +46 x#2#4 +39 x#2#3
  +40 x#2#2 +94 x#2#1 <= 178
 cap_9:
  +67 x#2#50 +84 x#2#49 +82 x#2#48 +19 x#2#47 +94 x#2#46 +58 x#2#45
  +74 x#2#44 +20 x#2#43 +95 x#2#42 +20 x#2#41 +84 x#2#40 +100 x#2#39
  +7 x#2#38 +31 x#2#37 +35 x#2#36 +87 x#2#35 +21 x#2#34 +80 x#2#33
  +58 x#2#32 +32 x#2#31 +88 x#2#30 +36 x#2#29 +73 x#2#28 +72 x#2#27
  +37 x#2#26 +24 x#2#25 +15 x#2#24 +34 x#2#23 +54 x#2#22 +56 x#2#21
  +7 x#2#20 +34 x#2#19 +15 x#2#18 +10 x#2#17 +84 x#2#16 +64 x#2#15
  +49 x#2#14 +81 x#2#13 +58 x#2#12 +44 x#2#11 +80 x#2#10 +48 x#2#9
  +65 x#2#8 +17 x#2#7 +59 x#2#6 +10 x#2#5 +71 x#2#4 +96 x#2#3
  +20 x#2#2 +89 x#2#1 <= 158
 cap_10:
  +23 x#2#50 +42 x#2#49 +93 x#2#48 +52 x#2#47 +52 x#2#46 +24 x#2#45
  +66 x#2#44 +88 x#2#43 +91 x#2#42 +19 x#2#41 +15 x#2#40 +88 x#2#39
  +3 x#2#38 +42 x#2#37 +45 x#2#36 +83 x#2#35 +57 x#2#34 +70 x#2#33
  +4 x#2#32 +37 x#2#31 +65 x#2#30 +39 x#2#29 +19 x#2#28 +83 x#2#27
  +82 x#2#26 +30 x#2#25 +85 x#2#24 +29 x#2#23 +29 x#2#22 +52 x#2#21
  +13 x#2#20 +26 x#2#19 +98 x#2#18 +93 x#2#17 +22 x#2#16 +37 x#2#15
  +37 x#2#14 +34 x#2#13 +11 x#2#12 +63 x#2#11 +14 x#2#10 +11 x#2#9
  +24 x#2#8 +83 x#2#7 + x#2#6 + x#2#5 +47 x#2#4 +20 x#2#3
  +86 x#2#2 +25 x#2#1 <= 122
 cap_11:
  +69 x#3#50 +13 x#3#49 +35 x#3#48 +17 x#3#47 +65 x#3#46 +48 x#3#45
  +95 x#3#44 +26 x#3#43 +25 x#3#42 +71 x#3#41 +2 x#3#40 +92 x#3#39
  +98 x#3#38 +17 x#3#37 +8 x#3#36 +82 x#3#35 +5 x#3#34 +95 x#3#33
  +77 x#3#32 +33 x#3#31 +60 x#3#30 +3 x#3#29 +40 x#3#28 +10 x#3#27
  +35 x#3#26 +62 x#3#25 +91 x#3#24 +70 x#3#23 +79 x#3#22 +19 x#3#21
  +69 x#3#20 +93 x#3#19 +14 x#3#18 +53 x#3#17 +79 x#3#16 +95 x#3#15
  +60 x#3#14 +88 x#3#13 +39 x#3#12 +45 x#3#11 +43 x#3#10 +9 x#3#9
  +7 x#3#8 +24 x#3#7 +88 x#3#6 +25 x#3#5 +63 x#3#4 +24 x#3#3
  +26 x#3#2 +57 x#3#1 <= 103
 cap_12:
  +95 x#3#50 +12 x#3#49 +4 x#3#48 +66 x#3#47 +34 x#3#46 +7 x#3#45
  +15 x#3#44 +50 x#3#43 +76 x#3#42 +22 x#3#41 +66 x#3#40 +6 x#3#39
  +73 x#3#38 +5 x#3#37 +41 x#3#36 +38 x#3#35 +4 x#3#34 +68 x#3#33
  +69 x#3#32 +4 x#3#31 +59 x#3#30 +84 x#3#29 +95 x#3#28 +61 x#3#27
  +43 x#3#26 +45 x#3#25 +27 x#3#24 +42 x#3#23 +70 x#3#22 +99 x#3#21
  +90 x#3#20 +69 x#3#19 +75 x#3#18 +39 x#3#17 +42 x#3#16 +47 x#3#15
  +66 x#3#14 +24 x#3#13 +3 x#3#12 +13 x#3#11 +98 x#3#10 +100 x#3#9
  +50 x#3#8 +17 x#3#7 +20 x#3#6 +98 x#3#5 +71 x#3#4 +31 x#3#3
  +59 x#3#2 +87 x#3#1 <= 125
 cap_13:
  +94 x#3#50 +2 x#3#49 +86 x#3#48 +14 x#3#47 +99 x#3#46 +48 x#3#45
  +91 x#3#44 +51 x#3#43 +26 x#3#42 +13 x#3#41 +34 x#3#40 +39 x#3#39
  +44 x#3#38 +2 x#3#37 +43 x#3#36 +76 x#3#35 +92 x#3#34 +24 x#3#33
  +12 x#3#32 +94 x#3#31 +74 x#3#30 +70 x#3#29 +44 x#3#28 +95 x#3#27
  +33 x#3#26 +4 x#3#25 +57 x#3#24 +87 x#3#23 +49 x#3#22 +91 x#3#21
  +5 x#3#20 +33 x#3#19 + x#3#18 +74 x#3#17 +49 x#3#16 +76 x#3#15
  +69 x#3#14 +82 x#3#13 +81 x#3#12 +94 x#3#11 +44 x#3#10 +75 x#3#9
  +28 x#3#8 +88 x#3#7 +83 x#3#6 +12 x#3#5 +46 x#3#4 +39 x#3#3
  +40 x#3#2 +94 x#3#1 <= 158
 cap_14:
  +67 x#3#50 +84 x#3#49 +82 x#3#48 +19 x#3#47 +94 x#3#46 +58 x#3#45
  +74 x#3#44 +20 x#3#43 +95 x#3#42 +20 x#3#41 +84 x#3#40 +100 x#3#39
  +7 x#3#38 +31 x#3#37 +35 x#3#36 +87 x#3#35 +21 x#3#34 +80 x#3#33
  +58 x#3#32 +32 x#3#31 +88 x#3#30 +36 x#3#29 +73 x#3#28 +72 x#3#27
  +37 x#3#26 +24 x#3#25 +15 x#3#24 +34 x#3#23 +54 x#3#22 +56 x#3#21
  +7 x#3#20 +34 x#3#19 +15 x#3#18 +10 x#3#17 +84 x#3#16 +64 x#3#15
  +49 x#3#14 +81 x#3#13 +58 x#3#12 +44 x#3#11 +80 x#3#10 +48 x#3#9
  +65 x#3#8 +17 x#3#7 +59 x#3#6 +10 x#3#5 +71 x#3#4 +96 x#3#3
  +20 x#3#2 +89 x#3#1 <= 135
 cap_15:
  +23 x#3#50 +42 x#3#49 +93 x#3#48 +52 x#3#47 +52 x#3#46 +24 x#3#45
  +66 x#3#44 +88 x#3#43 +91 x#3#42 +19 x#3#41 +15 x#3#40 +88 x#3#39
  +3 x#3#38 +42 x#3#37 +45 x#3#36 +83 x#3#35 +57 x#3#34 +70 x#3#33
  +4 x#3#32 +37 x#3#31 +65 x#3#30 +39 x#3#29 +19 x#3#28 +83 x#3#27
  +82 x#3#26 +30 x#3#25 +85 x#3#24 +29 x#3#23 +29 x#3#22 +52 x#3#21
  +13 x#3#20 +26 x#3#19 +98 x#3#18 +93 x#3#17 +22 x#3#16 +37 x#3#15
  +37 x#3#14 +34 x#3#13 +11 x#3#12 +63 x#3#11 +14 x#3#10 +11 x#3#9
  +24 x#3#8 +83 x#3#7 + x#3#6 + x#3#5 +47 x#3#4 +20 x#3#3
  +86 x#3#2 +25 x#3#1 <= 101
 cap_16:
  +69 x#4#50 +13 x#4#49 +35 x#4#48 +17 x#4#47 +65 x#4#46 +48 x#4#45
  +95 x#4#44 +26 x#4#43 +25 x#4#42 +71 x#4#41 +2 x#4#40 +92 x#4#39
  +98 x#4#38 +17 x#4#37 +8 x#4#36 +82 x#4#35 +5 x#4#34 +95 x#4#33
  +77 x#4#32 +33 x#4#31 +60 x#4#30 +3 x#4#29 +40 x#4#28 +10 x#4#27
  +35 x#4#26 +62 x#4#25 +91 x#4#24 +70 x#4#23 +79 x#4#22 +19 x#4#21
  +69 x#4#20 +93 x#4#19 +14 x#4#18 +53 x#4#17 +79 x#4#16 +95 x#4#15
  +60 x#4#14 +88 x#4#13 +39 x#4#12 +45 x#4#11 +43 x#4#10 +9 x#4#9
  +7 x#4#8 +24 x#4#7 +88 x#4#6 +25 x#4#5 +63 x#4#4 +24 x#4#3
  +26 x#4#2 +57 x#4#1 <= 162
 cap_17:
  +95 x#4#50 +12 x#4#49 +4 x#4#48 +66 x#4#47 +34 x#4#46 +7 x#4#45
  +15 x#4#44 +50 x#4#43 +76 x#4#42 +22 x#4#41 +66 x#4#40 +6 x#4#39
  +73 x#4#38 +5 x#4#37 +41 x#4#36 +38 x#4#35 +4 x#4#34 +68 x#4#33
  +69 x#4#32 +4 x#4#31 +59 x#4#30 +84 x#4#29 +95 x#4#28 +61 x#4#27
  +43 x#4#26 +45 x#4#25 +27 x#4#24 +42 x#4#23 +70 x#4#22 +99 x#4#21
  +90 x#4#20 +69 x#4#19 +75 x#4#18 +39 x#4#17 +42 x#4#16 +47 x#4#15
  +66 x#4#14 +24 x#4#13 +3 x#4#12 +13 x#4#11 +98 x#4#10 +100 x#4#9
  +50 x#4#8 +17 x#4#7 +20 x#4#6 +98 x#4#5 +71 x#4#4 +31 x#4#3
  +59 x#4#2 +87 x#4#1 <= 177
 cap_18:
  +94 x#4#50 +2 x#4#49 +86 x#4#48 +14 x#4#47 +99 x#4#46 +48 x#4#45
  +91 x#4#44 +51 x#4#43 +26 x#4#42 +13 x#4#41 +34 x#4#40 +39 x#4#39
  +44 x#4#38 +2 x#4#37 +43 x#4#36 +76 x#4#35 +92 x#4#34 +24 x#4#33
  +12 x#4#32 +94 x#4#31 +74 x#4#30 +70 x#4#29 +44 x#4#28 +95 x#4#27
  +33 x#4#26 +4 x#4#25 +57 x#4#24 +87 x#4#23 +49 x#4#22 +91 x#4#21
  +5 x#4#20 +33 x#4#19 + x#4#18 +74 x#4#17 +49 x#4#16 +76 x#4#15
  +69 x#4#14 +82 x#4#13 +81 x#4#12 +94 x#4#11 +44 x#4#10 +75 x#4#9
  +28 x#4#8 +88 x#4#7 +83 x#4#6 +12 x#4#5 +46 x#4#4 +39 x#4#3
  +40 x#4#2 +94 x#4#1 <= 163
 cap_19:
  +67 x#4#50 +84 x#4#49 +82 x#4#48 +19 x#4#47 +94 x#4#46 +58 x#4#45
  +74 x#4#44 +20 x#4#43 +95 x#4#42 +20 x#4#41 +84 x#4#40 +100 x#4#39
  +7 x#4#38 +31 x#4#37 +35 x#4#36 +87 x#4#35 +21 x#4#34 +80 x#4#33
  +58 x#4#32 +32 x#4#31 +88 x#4#30 +36 x#4#29 +73 x#4#28 +72 x#4#27
  +37 x#4#26 +24 x#4#25 +15 x#4#24 +34 x#4#23 +54 x#4#22 +56 x#4#21
  +7 x#4#20 +34 x#4#19 +15 x#4#18 +10 x#4#17 +84 x#4#16 +64 x#4#15
  +49 x#4#14 +81 x#4#13 +58 x#4#12 +44 x#4#11 +80 x#4#10 +48 x#4#9
  +65 x#4#8 +17 x#4#7 +59 x#4#6 +10 x#4#5 +71 x#4#4 +96 x#4#3
  +20 x#4#2 +89 x#4#1 <= 140
 cap_20:
  +23 x#4#50 +42 x#4#49 +93 x#4#48 +52 x#4#47 +52 x#4#46 +24 x#4#45
  +66 x#4#44 +88 x#4#43 +91 x#4#42 +19 x#4#41 +15 x#4#40 +88 x#4#39
  +3 x#4#38 +42 x#4#37 +45 x#4#36 +83 x#4#35 +57 x#4#34 +70 x#4#33
  +4 x#4#32 +37 x#4#31 +65 x#4#30 +39 x#4#29 +19 x#4#28 +83 x#4#27
  +82 x#4#26 +30 x#4#25 +85 x#4#24 +29 x#4#23 +29 x#4#22 +52 x#4#21
  +13 x#4#20 +26 x#4#19 +98 x#4#18 +93 x#4#17 +22 x#4#16 +37 x#4#15
  +37 x#4#14 +34 x#4#13 +11 x#4#12 +63 x#4#11 +14 x#4#10 +11 x#4#9
  +24 x#4#8 +83 x#4#7 + x#4#6 + x#4#5 +47 x#4#4 +20 x#4#3
  +86 x#4#2 +25 x#4#1 <= 107
 cap_21:
  +69 x#5#50 +13 x#5#49 +35 x#5#48 +17 x#5#47 +65 x#5#46 +48 x#5#45
  +95 x#5#44 +26 x#5#43 +25 x#5#42 +71 x#5#41 +2 x#5#40 +92 x#5#39
  +98 x#5#38 +17 x#5#37 +8 x#5#36 +82 x#5#35 +5 x#5#34 +95 x#5#33
  +77 x#5#32 +33 x#5#31 +60 x#5#30 +3 x#5#29 +40 x#5#28 +10 x#5#27
  +35 x#5#26 +62 x#5#25 +91 x#5#24 +70 x#5#23 +79 x#5#22 +19 x#5#21
  +69 x#5#20 +93 x#5#19 +14 x#5#18 +53 x#5#17 +79 x#5#16 +95 x#5#15
  +60 x#5#14 +88 x#5#13 +39 x#5#12 +45 x#5#11 +43 x#5#10 +9 x#5#9
  +7 x#5#8 +24 x#5#7 +88 x#5#6 +25 x#5#5 +63 x#5#4 +24 x#5#3
  +26 x#5#2 +57 x#5#1 <= 587
 cap_22:
  +95 x#5#50 +12 x#5#49 +4 x#5#48 +66 x#5#47 +34 x#5#46 +7 x#5#45
  +15 x#5#44 +50 x#5#43 +76 x#5#42 +22 x#5#41 +66 x#5#40 +6 x#5#39
  +73 x#5#38 +5 x#5#37 +41 x#5#36 +38 x#5#35 +4 x#5#34 +68 x#5#33
  +69 x#5#32 +4 x#5#31 +59 x#5#30 +84 x#5#29 +95 x#5#28 +61 x#5#27
  +43 x#5#26 +45 x#5#25 +27 x#5#24 +42 x#5#23 +70 x#5#22 +99 x#5#21
  +90 x#5#20 +69 x#5#19 +75 x#5#18 +39 x#5#17 +42 x#5#16 +47 x#5#15
  +66 x#5#14 +24 x#5#13 +3 x#5#12 +13 x#5#11 +98 x#5#10 +100 x#5#9
  +50 x#5#8 +17 x#5#7 +20 x#5#6 +98 x#5#5 +71 x#5#4 +31 x#5#3
  +59 x#5#2 +87 x#5#1 <= 557
 cap_23:
  +94 x#5#50 +2 x#5#49 +86 x#5#48 +14 x#5#47 +99 x#5#46 +48 x#5#45
  +91 x#5#44 +51 x#5#43 +26 x#5#42 +13 x#5#41 +34 x#5#40 +39 x#5#39
  +44 x#5#38 +2 x#5#37 +43 x#5#36 +76 x#5#35 +92 x#5#34 +24 x#5#33
  +12 x#5#32 +94 x#5#31 +74 x#5#30 +70 x#5#29 +44 x#5#28 +95 x#5#27
  +33 x#5#26 +4 x#5#25 +57 x#5#24 +87 x#5#23 +49 x#5#22 +91 x#5#21
  +5 x#5#20 +33 x#5#19 + x#5#18 +74 x#5#17 +49 x#5#16 +76 x#5#15
  +69 x#5#14 +82 x#5#13 +81 x#5#12 +94 x#5#11 +44 x#5#10 +75 x#5#9
  +28 x#5#8 +88 x#5#7 +83 x#5#6 +12 x#5#5 +46 x#5#4 +39 x#5#3
  +40 x#5#2 +94 x#5#1 <= 613
 cap_24:
  +67 x#5#50 +84 x#5#49 +82 x#5#48 +19 x#5#47 +94 x#5#46 +58 x#5#45
  +74 x#5#44 +20 x#5#43 +95 x#5#42 +20 x#5#41 +84 x#5#40 +100 x#5#39
  +7 x#5#38 +31 x#5#37 +35 x#5#36 +87 x#5#35 +21 x#5#34 +80 x#5#33
  +58 x#5#32 +32 x#5#31 +88 x#5#30 +36 x#5#29 +73 x#5#28 +72 x#5#27
  +37 x#5#26 +24 x#5#25 +15 x#5#24 +34 x#5#23 +54 x#5#22 +56 x#5#21
  +7 x#5#20 +34 x#5#19 +15 x#5#18 +10 x#5#17 +84 x#5#16 +64 x#5#15
  +49 x#5#14 +81 x#5#13 +58 x#5#12 +44 x#5#11 +80 x#5#10 +48 x#5#9
  +65 x#5#8 +17 x#5#7 +59 x#5#6 +10 x#5#5 +71 x#5#4 +96 x#5#3
  +20 x#5#2 +89 x#5#1 <= 611
 cap_25:
  +23 x#5#50 +42 x#5#49 +93 x#5#48 +52 x#5#47 +52 x#5#46 +24 x#5#45
  +66 x#5#44 +88 x#5#43 +91 x#5#42 +19 x#5#41 +15 x#5#40 +88 x#5#39
  +3 x#5#38 +42 x#5#37 +45 x#5#36 +83 x#5#35 +57 x#5#34 +70 x#5#33
  +4 x#5#32 +37 x#5#31 +65 x#5#30 +39 x#5#29 +19 x#5#28 +83 x#5#27
  +82 x#5#26 +30 x#5#25 +85 x#5#24 +29 x#5#23 +29 x#5#22 +52 x#5#21
  +13 x#5#20 +26 x#5#19 +98 x#5#18 +93 x#5#17 +22 x#5#16 +37 x#5#15
  +37 x#5#14 +34 x#5#13 +11 x#5#12 +63 x#5#11 +14 x#5#10 +11 x#5#9
  +24 x#5#8 +83 x#5#7 + x#5#6 + x#5#5 +47 x#5#4 +20 x#5#3
  +86 x#5#2 +25 x#5#1 <= 525
 one_1:
  + x#5#1 + x#4#1 + x#3#1 + x#2#1 + x#1#1 <= 1
 one_2:
  + x#5#2 + x#4#2 + x#3#2 + x#2#2 + x#1#2 <= 1
 one_3:
  + x#5#3 + x#4#3 + x#3#3 + x#2#3 + x#1#3 <= 1
 one_4:
  + x#5#4 + x#4#4 + x#3#4 + x#2#4 + x#1#4 <= 1
 one_5:
  + x#5#5 + x#4#5 + x#3#5 + x#2#5 + x#1#5 <= 1
 one_6:
  + x#5#6 + x#4#6 + x#3#6 + x#2#6 + x#1#6 <= 1
 one_7:
  + x#5#7 + x#4#7 + x#3#7 + x#2#7 + x#1#7 <= 1
 one_8:
  + x#5#8 + x#4#8 + x#3#8 + x#2#8 + x#1#8 <= 1
 one_9:
  + x#5#9 + x#4#9 + x#3#9 + x#2#9 + x#1#9 <= 1
 one_10:
  + x#5#10 + x#4#10 + x#3#10 + x#2#10 + x#1#10 <= 1
 one_11:
  + x#5#11 + x#4#11 + x#3#11 + x#2#11 + x#1#11 <= 1
 one_12:
  + x#5#12 + x#4#12 + x#3#12 + x#2#12 + x#1#12 <= 1
 one_13:
  + x#5#13 + x#4#13 + x#3#13 + x#2#13 + x#1#13 <= 1
 one_14:
  + x#5#14 + x#4#14 + x#3#14 + x#2#14 + x#1#14 <= 1
 one_15:
  + x#5#15 + x#4#15 + x#3#15 + x#2#15 + x#1#15 <= 1
 one_16:
  + x#5#16 + x#4#16 + x#3#16 + x#2#16 + x#1#16 <= 1
 one_17:
  + x#5#17 + x#4#17 + x#3#17 + x#2#17 + x#1#17 <= 1
 one_18:
  + x#5#18 + x#4#18 + x#3#18 + x#2#18 + x#1#18 <= 1
 one_19:
  + x#5#19 + x#4#19 + x#3#19 + x#2#19 + x#1#19 <= 1
 one_20:
  + x#5#20 + x#4#20 + x#3#20 + x#2#20 + x#1#20 <= 1
 one_21:
  + x#5#21 + x#4#21 + x#3#21 + x#2#21 + x#1#21 <= 1
 one_22:
  + x#5#22 + x#4#22 + x#3#22 + x#2#22 + x#1#22 <= 1
 one_23:
  + x#5#23 + x#4#23 + x#3#23 + x#2#23 + x#1#23 <= 1
 one_24:
  + x#5#24 + x#4#24 + x#3#24 + x#2#24 + x#1#24 <= 1
 one_25:
  + x#5#25 + x#4#25 + x#3#25 + x#2#25 + x#1#25 <= 1
 one_26:
  + x#5#26 + x#4#26 + x#3#26 + x#2#26 + x#1#26 <= 1
 one_27:
  + x#5#27 + x#4#27 + x#3#27 + x#2#27 + x#1#27 <= 1
 one_28:
  + x#5#28 + x#4#28 + x#3#28 + x#2#28 + x#1#28 <= 1
 one_29:
  + x#5#29 + x#4#29 + x#3#29 + x#2#29 + x#1#29 <= 1
 one_30:
  + x#5#30 + x#4#30 + x#3#30 + x#2#30 + x#1#30 <= 1
 one_31:
  + x#5#31 + x#4#31 + x#3#31 + x#2#31 + x#1#31 <= 1
 one_32:
  + x#5#32 + x#4#32 + x#3#32 + x#2#32 + x#1#32 <= 1
 one_33:
  + x#5#33 + x#4#33 + x#3#33 + x#2#33 + x#1#33 <= 1
 one_34:
  + x#5#34 + x#4#34 + x#3#34 + x#2#34 + x#1#34 <= 1
 one_35:
  + x#5#35 + x#4#35 + x#3#35 + x#2#35 + x#1#35 <= 1
 one_36:
  + x#5#36 + x#4#36 + x#3#36 + x#2#36 + x#1#36 <= 1
 one_37:
  + x#5#37 + x#4#37 + x#3#37 + x#2#37 + x#1#37 <= 1
 one_38:
  + x#5#38 + x#4#38 + x#3#38 + x#2#38 + x#1#38 <= 1
 one_39:
  + x#5#39 + x#4#39 + x#3#39 + x#2#39 + x#1#39 <= 1
 one_40:
  + x#5#40 + x#4#40 + x#3#40 + x#2#40 + x#1#40 <= 1
 one_41:
  + x#5#41 + x#4#41 + x#3#41 + x#2#41 + x#1#41 <= 1
 one_42:
  + x#5#42 + x#4#42 + x#3#42 + x#2#42 + x#1#42 <= 1
 one_43:
  + x#5#43 + x#4#43 + x#3#43 + x#2#43 + x#1#43 <= 1
 one_44:
  + x#5#44 + x#4#44 + x#3#44 + x#2#44 + x#1#44 <= 1
 one_45:
  + x#5#45 + x#4#45 + x#3#45 + x#2#45 + x#1#45 <= 1
 one_46:
  + x#5#46 + x#4#46 + x#3#46 + x#2#46 + x#1#46 <= 1
 one_47:
  + x#5#47 + x#4#47 + x#3#47 + x#2#47 + x#1#47 <= 1
 one_48:
  + x#5#48 + x#4#48 + x#3#48 + x#2#48 + x#1#48 <= 1
 one_49:
  + x#5#49 + x#4#49 + x#3#49 + x#2#49 + x#1#49 <= 1
 one_50:
  + x#5#50 + x#4#50 + x#3#50 + x#2#50 + x#1#50 <= 1
Bounds
 0 <= x#1#1 <= 1
 0 <= x#1#2 <= 1
 0 <= x#1#3 <= 1
 0 <= x#1#4 <= 1
 0 <= x#1#5 <= 1
 0 <= x#1#6 <= 1
 0 <= x#1#7 <= 1
 0 <= x#1#8 <= 1
 0 <= x#1#9 <= 1
 0 <= x#1#10 <= 1
 0 <= x#1#11 <= 1
 0 <= x#1#12 <= 1
 0 <= x#1#13 <= 1
 0 <= x#1#14 <= 1
 0 <= x#1#15 <= 1
 0 <= x#1#16 <= 1
 0 <= x#1#17 <= 1
 0 <= x#1#18 <= 1
 0 <= x#1#19 <= 1
 0 <= x#1#20 <= 1
 0 <= x#1#21 <= 1
 0 <= x#1#22 <= 1
 0 <= x#1#23 <= 1
 0 <= x#1#24 <= 1
 0 <= x#1#25 <= 1
 0 <= x#1#26 <= 1
 0 <= x#1#27 <= 1
 0 <= x#1#28 <= 1
 0 <= x#1#29 <= 1
 0 <= x#1#30 <= 1
 0 <= x#1#31 <= 1
 0 <= x#1#32 <= 1
 0 <= x#1#33 <= 1
 0 <= x#1#34 <= 1
 0 <= x#1#35 <= 1
 0 <= x#1#36 <= 1
 0 <= x#1#37 <= 1
 0 <= x#1#38 <= 1
 0 <= x#1#39 <= 1
 0 <= x#1#40 <= 1
 0 <= x#1#41 <= 1
 0 <= x#1#42 <= 1
 0 <= x#1#43 <= 1
 0 <= x#1#44 <= 1
 0 <= x#1#45 <= 1
 0 <= x#1#46 <= 1
 0 <= x#1#47 <= 1
 0 <= x#1#48 <= 1
 0 <= x#1#49 <= 1
 0 <= x#1#50 <= 1
 0 <= x#2#1 <= 1
 0 <= x#2#2 <= 1
 0 <= x#2#3 <= 1
 0 <= x#2#4 <= 1
 0 <= x#2#5 <= 1
 0 <= x#2#6 <= 1
 0 <= x#2#7 <= 1
 0 <= x#2#8 <= 1
 0 <= x#2#9 <= 1
 0 <= x#2#10 <= 1
 0 <= x#2#11 <= 1
 0 <= x#2#12 <= 1
 0 <= x#2#13 <= 1
 0 <= x#2#14 <= 1
 0 <= x#2#15 <= 1
 0 <= x#2#16 <= 1
 0 <= x#2#17 <= 1
 0 <= x#2#18 <= 1
 0 <= x#2#19 <= 1
 0 <= x#2#20 <= 1
 0 <= x#2#21 <= 1
 0 <= x#2#22 <= 1
 0 <= x#2#23 <= 1
 0 <= x#2#24 <= 1
 0 <= x#2#25 <= 1
 0 <= x#2#26 <= 1
 0 <= x#2#27 <= 1
 0 <= x#2#28 <= 1
 0 <= x#2#29 <= 1
 0 <= x#2#30 <= 1
 0 <= x#2#31 <= 1
 0 <= x#2#32 <= 1
 0 <= x#2#33 <= 1
 0 <= x#2#34 <= 1
 0 <= x#2#35 <= 1
 0 <= x#2#36 <= 1
 0 <= x#2#37 <= 1
 0 <= x#2#38 <= 1
 0 <= x#2#39 <= 1
 0 <= x#2#40 <= 1
 0 <= x#2#41 <= 1
 0 <= x#2#42 <= 1
 0 <= x#2#43 <= 1
 0 <= x#2#44 <= 1
 0 <= x#2#45 <= 1
 0 <= x#2#46 <= 1
 0 <= x#2#47 <= 1
 0 <= x#2#48 <= 1
 0 <= x#2#49 <= 1
 0 <= x#2#50 <= 1
 0 <= x#3#1 <= 1
 0 <= x#3#2 <= 1
 0 <= x#3#3 <= 1
 0 <= x#3#4 <= 1
 0 <= x#3#5 <= 1
 0 <= x#3#6 <= 1
 0 <= x#3#7 <= 1
 0 <= x#3#8 <= 1
 0 <= x#3#9 <= 1
 0 <= x#3#10 <= 1
 0 <= x#3#11 <= 1
 0 <= x#3#12 <= 1
 0 <= x#3#13 <= 1
 0 <= x#3#14 <= 1
 0 <= x#3#15 <= 1
 0 <= x#3#16 <= 1
 0 <= x#3#17 <= 1
 0 <= x#3#18 <= 1
 0 <= x#3#19 <= 1
 0 <= x#3#20 <= 1
 0 <= x#3#21 <= 1
 0 <= x#3#22 <= 1
 0 <= x#3#23 <= 1
 0 <= x#3#24 <= 1
 0 <= x#3#25 <= 1
 0 <= x#3#26 <= 1
 0 <= x#3#27 <= 1
 0 <= x#3#28 <= 1
 0 <= x#3#29 <= 1
 0 <= x#3#30 <= 1
 0 <= x#3#31 <= 1
 0 <= x#3#32 <= 1
 0 <= x#3#33 <= 1
 0 <= x#3#34 <= 1
 0 <= x#3#35 <= 1
 0 <= x#3#36 <= 1
 0 <= x#3#37 <= 1
 0 <= x#3#38 <= 1
 0 <= x#3#39 <= 1
 0 <= x#3#40 <= 1
 0 <= x#3#41 <= 1
 0 <= x#3#42 <= 1
 0 <= x#3#43 <= 1
 0 <= x#3#44 <= 1
 0 <= x#3#45 <= 1
 0 <= x#3#46 <= 1
 0 <= x#3#47 <= 1
 0 <= x#3#48 <= 1
 0 <= x#3#49 <= 1
 0 <= x#3#50 <= 1
 0 <= x#4#1 <= 1
 0 <= x#4#2 <= 1
 0 <= x#4#3 <= 1
 0 <= x#4#4 <= 1
 0 <= x#4#5 <= 1
 0 <= x#4#6 <= 1
 0 <= x#4#7 <= 1
 0 <= x#4#8 <= 1
 0 <= x#4#9 <= 1
 0 <= x#4#10 <= 1
 0 <= x#4#11 <= 1
 0 <= x#4#12 <= 1
 0 <= x#4#13 <= 1
 0 <= x#4#14 <= 1
 0 <= x#4#15 <= 1
 0 <= x#4#16 <= 1
 0 <= x#4#17 <= 1
 0 <= x#4#18 <= 1
 0 <= x#4#19 <= 1
 0 <= x#4#20 <= 1
 0 <= x#4#21 <= 1
 0 <= x#4#22 <= 1
 0 <= x#4#23 <= 1
 0 <= x#4#24 <= 1
 0 <= x#4#25 <= 1
 0 <= x#4#26 <= 1
 0 <= x#4#27 <= 1
 0 <= x#4#28 <= 1
 0 <= x#4#29 <= 1
 0 <= x#4#30 <= 1
 0 <= x#4#31 <= 1
 0 <= x#4#32 <= 1
 0 <= x#4#33 <= 1
 0 <= x#4#34 <= 1
 0 <= x#4#35 <= 1
 0 <= x#4#36 <= 1
 0 <= x#4#37 <= 1
 0 <= x#4#38 <= 1
 0 <= x#4#39 <= 1
 0 <= x#4#40 <= 1
 0 <= x#4#41 <= 1
 0 <= x#4#42 <= 1
 0 <= x#4#43 <= 1
 0 <= x#4#44 <= 1
 0 <= x#4#45 <= 1
 0 <= x#4#46 <= 1
 0 <= x#4#47 <= 1
 0 <= x#4#48 <= 1
 0 <= x#4#49 <= 1
 0 <= x#4#50 <= 1
 0 <= x#5#1 <= 1
 0 <= x#5#2 <= 1
 0 <= x#5#3 <= 1
 0 <= x#5#4 <= 1
 0 <= x#5#5 <= 1
 0 <= x#5#6 <= 1
 0 <= x#5#7 <= 1
 0 <= x#5#8 <= 1
 0 <= x#5#9 <= 1
 0 <= x#5#10 <= 1
 0 <= x#5#11 <= 1
 0 <= x#5#12 <= 1
 0 <= x#5#13 <= 1
 0 <= x#5#14 <= 1
 0 <= x#5#15 <= 1
 0 <= x#5#16 <= 1
 0 <= x#5#17 <= 1
 0 <= x#5#18 <= 1
 0 <= x#5#19 <= 1
 0 <= x#5#20 <= 1
 0 <= x#5#21 <= 1
 0 <= x#5#22 <= 1
 0 <= x#5#23 <= 1
 0 <= x#5#24 <= 1
 0 <= x#5#25 <= 1
 0 <= x#5#26 <= 1
 0 <= x#5#27 <= 1
 0 <= x#5#28 <= 1
 0 <= x#5#29 <= 1
 0 <= x#5#30 <= 1
 0 <= x#5#31 <= 1
 0 <= x#5#32 <= 1
 0 <= x#5#33 <= 1
 0 <= x#5#34 <= 1
 0 <= x#5#35 <= 1
 0 <= x#5#36 <= 1
 0 <= x#5#37 <= 1
 0 <= x#5#38 <= 1
 0 <= x#5#39 <= 1
 0 <= x#5#40 <= 1
 0 <= x#5#41 <= 1
 0 <= x#5#42 <= 1
 0 <= x#5#43 <= 1
 0 <= x#5#44 <= 1
 0 <= x#5#45 <= 1
 0 <= x#5#46 <= 1
 0 <= x#5#47 <= 1
 0 <= x#5#48 <= 1
 0 <= x#5#49 <= 1
 0 <= x#5#50 <= 1
General
 x#1#1
 x#1#2
 x#1#3
 x#1#4
 x#1#5
 x#1#6
 x#1#7
 x#1#8
 x#1#9
 x#1#10
 x#1#11
 x#1#12
 x#1#13
 x#1#14
 x#1#15
 x#1#16
 x#1#17
 x#1#18
 x#1#19
 x#1#20
 x#1#21
 x#1#22
 x#1#23
 x#1#24
 x#1#25
 x#1#26
 x#1#27
 x#1#28
 x#1#29
 x#1#30
 x#1#31
 x#1#32
 x#1#33
 x#1#34
 x#1#35
 x#1#36
 x#1#37
 x#1#38
 x#1#39
 x#1#40
 x#1#41
 x#1#42
 x#1#43
 x#1#44
 x#1#45
 x#1#46
 x#1#47
 x#1#48
 x#1#49
 x#1#50
 x#2#1
 x#2#2
 x#2#3
 x#2#4
 x#2#5
 x#2#6
 x#2#7
 x#2#8
 x#2#9
 x#2#10
 x#2#11
 x#2#12
 x#2#13
 x#2#14
 x#2#15
 x#2#16
 x#2#17
 x#2#18
 x#2#19
 x#2#20
 x#2#21
 x#2#22
 x#2#23
 x#2#24
 x#2#25
 x#2#26
 x#2#27
 x#2#28
 x#2#29
 x#2#30
 x#2#31
 x#2#32
 x#2#33
 x#2#34
 x#2#35
 x#2#36
 x#2#37
 x#2#38
 x#2#39
 x#2#40
 x#2#41
 x#2#42
 x#2#43
 x#2#44
 x#2#45
 x#2#46
 x#2#47
 x#2#48
 x#2#49
 x#2#50
 x#3#1
 x#3#2
 x#3#3
 x#3#4
 x#3#5
 x#3#6
 x#3#7
 x#3#8
 x#3#9
 x#3#10
 x#3#11
 x#3#12
 x#3#13
 x#3#14
 x#3#15
 x#3#16
 x#3#17
 x#3#18
 x#3#19
 x#3#20
 x#3#21
 x#3#22
 x#3#23
 x#3#24
 x#3#25
 x#3#26
 x#3#27
 x#3#28
 x#3#29
 x#3#30
 x#3#31
 x#3#32
 x#3#33
 x#3#34
 x#3#35
 x#3#36
 x#3#37
 x#3#38
 x#3#39
 x#3#40
 x#3#41
 x#3#42
 x#3#43
 x#3#44
 x#3#45
 x#3#46
 x#3#47
 x#3#48
 x#3#49
 x#3#50
 x#4#1
 x#4#2
 x#4#3
 x#4#4
 x#4#5
 x#4#6
 x#4#7
 x#4#8
 x#4#9
 x#4#10
 x#4#11
 x#4#12
 x#4#13
 x#4#14
 x#4#15
 x#4#16
 x#4#17
 x#4#18
 x#4#19
 x#4#20
 x#4#21
 x#4#22
 x#4#23
 x#4#24
 x#4#25
 x#4#26
 x#4#27
 x#4#28
 x#4#29
 x#4#30
 x#4#31
 x#4#32
 x#4#33
 x#4#34
 x#4#35
 x#4#36
 x#4#37
 x#4#38
 x#4#39
 x#4#40
 x#4#41
 x#4#42
 x#4#43
 x#4#44
 x#4#45
 x#4#46
 x#4#47
 x#4#48
 x#4#49
 x#4#50
 x#5#1
 x#5#2
 x#5#3
 x#5#4
 x#5#5
 x#5#6
 x#5#7
 x#5#8
 x#5#9
 x#5#10
 x#5#11
 x#5#12
 x#5#13
 x#5#14
 x#5#15
 x#5#16
 x#5#17
 x#5#18
 x#5#19
 x#5#20
 x#5#21
 x#5#22
 x#5#23
 x#5#24
 x#5#25
 x#5#26
 x#5#27
 x#5#28
 x#5#29
 x#5#30
 x#5#31
 x#5#32
 x#5#33
 x#5#34
 x#5#35
 x#5#36
 x#5#37
 x#5#38
 x#5#39
 x#5#40
 x#5#41
 x#5#42
 x#5#43
 x#5#44
 x#5#45
 x#5#46
 x#5#47
 x#5#48
 x#5#49
 x#5#50
End
