src/zimpl/instances/knapsack50nr1.txt
# Nr of Items 
50
# Nr of Knapsacks 
5
# Nr of Constraints 
5
# Items profits:
36 
68 
37 
43 
69 
25 
74 
60 
50 
56 
27 
17 
84 
16 
32 
89 
8 
95 
28 
46 
35 
58 
39 
21 
92 
10 
81 
46 
14 
85 
85 
78 
51 
64 
48 
48 
59 
63 
100 
61 
31 
9 
53 
73 
87 
46 
4 
84 
69 
31 

# Items weights:
57 87 94 89 25 
26 59 40 20 86 
24 31 39 96 20 
63 71 46 71 47 
25 98 12 10 1 
88 20 83 59 1 
24 17 88 17 83 
7 50 28 65 24 
9 100 75 48 11 
43 98 44 80 14 
45 13 94 44 63 
39 3 81 58 11 
88 24 82 81 34 
60 66 69 49 37 
95 47 76 64 37 
79 42 49 84 22 
53 39 74 10 93 
14 75 1 15 98 
93 69 33 34 26 
69 90 5 7 13 
19 99 91 56 52 
79 70 49 54 29 
70 42 87 34 29 
91 27 57 15 85 
62 45 4 24 30 
35 43 33 37 82 
10 61 95 72 83 
40 95 44 73 19 
3 84 70 36 39 
60 59 74 88 65 
33 4 94 32 37 
77 69 12 58 4 
95 68 24 80 70 
5 4 92 21 57 
82 38 76 87 83 
8 41 43 35 45 
17 5 2 31 42 
98 73 44 7 3 
92 6 39 100 88 
2 66 34 84 15 
71 22 13 20 19 
25 76 26 95 91 
26 50 51 20 88 
95 15 91 74 66 
48 7 48 58 24 
65 34 99 94 52 
17 66 14 19 52 
35 4 86 82 93 
13 12 2 84 42 
69 95 94 67 23 
# Knapsacks:
123 156 158 168 173 
97 166 178 158 122 
103 125 158 135 101 
162 177 163 140 107 
587 557 613 611 525 
